NAME: PointSet_Angle_60_6
TYPE: TSP
COMMENT: Points chosen discrete uniformly at random out of ${0, \ldots, 500}^2$.
DIMENSION: 60
EDGE_WEIGHT_TYPE: EUC_2D
NODE_COORD_SECTION
1 427 26
2 204 335
3 165 6
4 372 380
5 488 66
6 58 344
7 438 477
8 99 343
9 193 454
10 219 139
11 287 306
12 329 246
13 464 165
14 317 70
15 34 418
16 285 461
17 191 235
18 42 356
19 488 160
20 235 476
21 227 40
22 65 164
23 263 164
24 253 456
25 364 219
26 341 150
27 24 169
28 143 488
29 334 206
30 305 368
31 371 89
32 75 61
33 71 117
34 417 58
35 23 398
36 280 250
37 184 91
38 160 447
39 2 160
40 148 366
41 125 490
42 263 149
43 158 406
44 384 239
45 358 435
46 353 228
47 270 428
48 289 341
49 291 452
50 146 315
51 96 172
52 64 280
53 264 472
54 227 266
55 378 121
56 131 2
57 110 394
58 398 15
59 45 281
60 254 404
EOF
